benchmarks_CP/INST_49x49/50/inst49x49_50_30.dzn
S=7;
start=[|
-1,	12,	-1,	-1,	-1,	-1,	22,	-1,	31,	41,	-1,	-1,	18,	-1,	-1,	26,	-1,	-1,	40,	3,	-1,	-1,	48,	-1,	-1,	-1,	-1,	-1,	42,	-1,	1,	35,	-1,	-1,	2,	-1,	46,	-1,	28,	-1,	29,	8,	10,	-1,	21,	-1,	43,	13,	9|
-1,	15,	32,	21,	20,	-1,	-1,	22,	-1,	-1,	-1,	-1,	48,	-1,	43,	-1,	45,	9,	42,	-1,	13,	12,	6,	-1,	37,	-1,	-1,	-1,	-1,	-1,	47,	-1,	-1,	19,	7,	49,	-1,	-1,	10,	35,	-1,	38,	-1,	-1,	23,	-1,	28,	8,	-1|
-1,	-1,	-1,	8,	2,	35,	34,	-1,	-1,	43,	-1,	-1,	40,	-1,	-1,	-1,	12,	10,	-1,	18,	-1,	30,	27,	20,	16,	7,	-1,	13,	33,	15,	-1,	48,	38,	-1,	5,	-1,	-1,	-1,	-1,	-1,	3,	-1,	-1,	-1,	-1,	-1,	-1,	22,	-1|
25,	-1,	-1,	-1,	-1,	-1,	-1,	14,	-1,	-1,	-1,	-1,	-1,	-1,	1,	38,	33,	23,	24,	35,	-1,	19,	-1,	-1,	2,	-1,	18,	29,	-1,	36,	21,	16,	-1,	-1,	-1,	-1,	20,	13,	-1,	40,	-1,	43,	-1,	26,	-1,	-1,	-1,	-1,	-1|
4,	-1,	-1,	48,	-1,	-1,	-1,	-1,	32,	12,	-1,	13,	-1,	44,	28,	11,	-1,	-1,	30,	15,	-1,	35,	-1,	-1,	-1,	46,	-1,	-1,	9,	17,	20,	43,	-1,	-1,	40,	27,	-1,	7,	-1,	-1,	-1,	6,	3,	-1,	19,	-1,	24,	-1,	-1|
23,	3,	-1,	-1,	38,	-1,	43,	2,	-1,	25,	47,	-1,	49,	-1,	44,	-1,	17,	-1,	-1,	48,	21,	1,	4,	22,	9,	-1,	-1,	-1,	-1,	-1,	31,	34,	-1,	-1,	-1,	33,	37,	45,	-1,	-1,	-1,	-1,	30,	-1,	-1,	-1,	40,	15,	-1|
-1,	17,	30,	40,	13,	7,	47,	24,	-1,	-1,	20,	33,	-1,	-1,	-1,	-1,	-1,	2,	-1,	-1,	31,	15,	-1,	-1,	41,	-1,	-1,	49,	-1,	-1,	-1,	25,	-1,	37,	11,	9,	-1,	34,	-1,	-1,	-1,	19,	-1,	36,	12,	29,	1,	38,	35|
11,	25,	17,	-1,	-1,	8,	6,	31,	-1,	-1,	10,	-1,	-1,	3,	35,	22,	26,	41,	49,	-1,	-1,	7,	20,	30,	38,	-1,	13,	32,	-1,	16,	-1,	-1,	40,	-1,	27,	45,	12,	9,	21,	1,	14,	28,	-1,	19,	-1,	44,	-1,	-1,	-1|
-1,	-1,	4,	-1,	26,	21,	7,	-1,	13,	-1,	29,	-1,	-1,	19,	12,	-1,	-1,	37,	48,	-1,	1,	27,	-1,	2,	-1,	14,	46,	-1,	-1,	-1,	-1,	28,	42,	-1,	-1,	-1,	32,	-1,	-1,	-1,	-1,	33,	-1,	5,	18,	16,	6,	-1,	25|
1,	-1,	40,	-1,	48,	39,	-1,	44,	-1,	-1,	7,	-1,	-1,	-1,	34,	-1,	-1,	42,	-1,	16,	28,	-1,	-1,	12,	-1,	21,	6,	-1,	-1,	-1,	15,	-1,	33,	-1,	17,	-1,	3,	-1,	-1,	31,	22,	35,	-1,	43,	30,	-1,	-1,	-1,	13|
-1,	2,	49,	16,	-1,	-1,	36,	-1,	41,	35,	-1,	-1,	1,	-1,	-1,	-1,	4,	14,	-1,	-1,	45,	44,	31,	-1,	33,	9,	8,	25,	19,	48,	-1,	39,	46,	-1,	6,	-1,	47,	15,	24,	18,	-1,	-1,	-1,	12,	27,	40,	-1,	32,	-1|
19,	28,	34,	-1,	41,	-1,	13,	4,	-1,	-1,	37,	12,	-1,	-1,	-1,	23,	15,	8,	-1,	33,	-1,	26,	-1,	-1,	24,	39,	-1,	-1,	11,	31,	-1,	-1,	32,	35,	-1,	46,	-1,	16,	-1,	42,	-1,	30,	-1,	-1,	10,	-1,	-1,	20,	45|
-1,	-1,	10,	12,	-1,	47,	20,	-1,	45,	42,	26,	-1,	16,	14,	-1,	29,	-1,	19,	44,	-1,	-1,	40,	37,	-1,	-1,	17,	34,	-1,	21,	-1,	5,	-1,	-1,	25,	23,	-1,	-1,	49,	39,	13,	-1,	27,	15,	4,	3,	-1,	7,	31,	24|
31,	38,	-1,	-1,	24,	-1,	35,	40,	8,	-1,	21,	47,	27,	-1,	-1,	-1,	-1,	46,	39,	10,	-1,	49,	28,	15,	36,	-1,	16,	-1,	-1,	2,	13,	7,	-1,	-1,	14,	25,	-1,	-1,	-1,	-1,	6,	23,	42,	1,	41,	-1,	33,	9,	-1|
22,	-1,	-1,	-1,	-1,	13,	-1,	-1,	-1,	9,	-1,	24,	26,	-1,	37,	-1,	27,	-1,	-1,	-1,	39,	-1,	-1,	25,	-1,	-1,	-1,	12,	-1,	-1,	-1,	6,	-1,	-1,	46,	34,	11,	10,	35,	-1,	40,	-1,	19,	44,	15,	3,	48,	-1,	-1|
17,	43,	-1,	-1,	-1,	29,	-1,	13,	2,	36,	-1,	-1,	44,	-1,	45,	-1,	-1,	40,	28,	-1,	6,	3,	-1,	5,	-1,	-1,	-1,	-1,	-1,	38,	19,	-1,	-1,	22,	-1,	-1,	-1,	33,	25,	20,	-1,	-1,	-1,	42,	4,	21,	-1,	10,	47|
-1,	-1,	46,	39,	27,	40,	33,	-1,	-1,	19,	42,	29,	-1,	-1,	-1,	-1,	36,	16,	-1,	-1,	-1,	-1,	30,	-1,	13,	48,	47,	-1,	-1,	-1,	-1,	4,	7,	-1,	12,	28,	2,	31,	-1,	-1,	17,	-1,	-1,	-1,	32,	-1,	-1,	18,	22|
-1,	-1,	-1,	-1,	-1,	10,	-1,	49,	15,	-1,	34,	20,	-1,	-1,	24,	18,	-1,	4,	8,	23,	-1,	-1,	22,	39,	43,	16,	44,	40,	13,	42,	-1,	-1,	36,	47,	3,	-1,	9,	-1,	7,	-1,	-1,	46,	-1,	-1,	-1,	26,	25,	28,	41|
-1,	-1,	-1,	-1,	-1,	20,	11,	-1,	-1,	32,	-1,	5,	39,	10,	19,	-1,	-1,	34,	-1,	12,	-1,	-1,	21,	-1,	-1,	49,	-1,	-1,	-1,	40,	28,	-1,	-1,	-1,	-1,	4,	36,	24,	-1,	-1,	47,	13,	-1,	-1,	14,	-1,	-1,	-1,	-1|
-1,	-1,	3,	36,	-1,	-1,	-1,	-1,	-1,	-1,	28,	7,	14,	35,	26,	-1,	48,	-1,	25,	-1,	22,	-1,	-1,	4,	20,	-1,	17,	18,	-1,	-1,	-1,	31,	30,	-1,	-1,	-1,	-1,	-1,	-1,	16,	-1,	-1,	34,	-1,	-1,	-1,	8,	-1,	49|
-1,	-1,	25,	-1,	-1,	-1,	-1,	-1,	23,	3,	-1,	18,	43,	27,	-1,	44,	-1,	7,	-1,	29,	-1,	-1,	19,	28,	46,	-1,	-1,	-1,	34,	33,	-1,	-1,	10,	17,	39,	22,	48,	-1,	49,	30,	42,	12,	5,	40,	-1,	-1,	9,	1,	-1|
-1,	33,	-1,	28,	46,	5,	-1,	-1,	-1,	27,	-1,	-1,	23,	-1,	-1,	2,	13,	-1,	-1,	4,	36,	21,	-1,	-1,	44,	-1,	-1,	47,	20,	-1,	10,	3,	39,	40,	42,	-1,	-1,	-1,	-1,	-1,	43,	-1,	22,	-1,	-1,	-1,	-1,	29,	-1|
-1,	-1,	13,	1,	-1,	49,	-1,	-1,	-1,	-1,	-1,	-1,	34,	-1,	8,	9,	20,	-1,	16,	25,	-1,	17,	40,	23,	-1,	-1,	15,	-1,	-1,	14,	-1,	41,	-1,	11,	35,	37,	28,	-1,	18,	-1,	-1,	31,	24,	32,	-1,	6,	-1,	46,	-1|
-1,	-1,	12,	-1,	-1,	9,	-1,	33,	-1,	13,	-1,	45,	6,	-1,	-1,	10,	14,	21,	-1,	41,	27,	22,	-1,	19,	3,	-1,	-1,	-1,	-1,	-1,	32,	47,	15,	-1,	-1,	30,	-1,	-1,	-1,	23,	-1,	-1,	-1,	7,	-1,	37,	-1,	11,	18|
-1,	-1,	18,	35,	32,	-1,	-1,	-1,	21,	-1,	12,	48,	-1,	-1,	-1,	-1,	-1,	28,	3,	-1,	26,	-1,	38,	-1,	8,	-1,	-1,	-1,	31,	-1,	17,	-1,	49,	-1,	9,	-1,	22,	-1,	-1,	25,	-1,	-1,	36,	-1,	2,	-1,	-1,	-1,	19|
41,	-1,	-1,	-1,	-1,	3,	45,	-1,	40,	16,	19,	26,	32,	-1,	42,	-1,	23,	47,	-1,	49,	12,	28,	-1,	13,	-1,	-1,	-1,	-1,	-1,	22,	-1,	33,	43,	18,	-1,	1,	38,	44,	20,	17,	-1,	-1,	14,	-1,	9,	-1,	10,	30,	27|
47,	37,	24,	-1,	10,	4,	-1,	39,	22,	8,	3,	25,	9,	49,	32,	33,	-1,	-1,	5,	7,	-1,	18,	42,	14,	27,	31,	-1,	16,	6,	-1,	23,	-1,	-1,	-1,	-1,	2,	-1,	-1,	12,	-1,	-1,	41,	20,	-1,	13,	1,	21,	40,	28|
27,	-1,	-1,	23,	-1,	31,	-1,	-1,	-1,	38,	35,	28,	20,	-1,	-1,	48,	-1,	24,	22,	-1,	18,	43,	25,	49,	-1,	-1,	10,	-1,	5,	19,	-1,	12,	21,	-1,	36,	13,	42,	-1,	47,	-1,	-1,	14,	-1,	-1,	-1,	-1,	15,	3,	-1|
-1,	-1,	-1,	19,	-1,	-1,	5,	-1,	-1,	-1,	39,	16,	-1,	-1,	48,	31,	43,	-1,	45,	-1,	24,	11,	18,	-1,	40,	-1,	-1,	-1,	-1,	20,	38,	-1,	17,	-1,	33,	-1,	-1,	-1,	37,	12,	-1,	-1,	1,	-1,	36,	41,	-1,	26,	-1|
-1,	6,	26,	-1,	-1,	-1,	29,	-1,	3,	23,	-1,	27,	-1,	-1,	11,	-1,	-1,	-1,	21,	2,	-1,	-1,	9,	-1,	48,	-1,	-1,	41,	-1,	43,	30,	-1,	47,	7,	13,	-1,	-1,	-1,	-1,	-1,	-1,	-1,	-1,	-1,	24,	14,	5,	34,	-1|
-1,	45,	38,	20,	-1,	-1,	-1,	1,	-1,	22,	24,	-1,	5,	32,	4,	47,	40,	35,	-1,	-1,	-1,	39,	44,	-1,	-1,	37,	-1,	14,	18,	25,	-1,	42,	48,	15,	-1,	23,	-1,	-1,	2,	33,	34,	-1,	-1,	29,	-1,	27,	-1,	-1,	-1|
2,	-1,	-1,	14,	31,	22,	-1,	12,	-1,	6,	-1,	21,	29,	-1,	-1,	-1,	-1,	5,	33,	-1,	44,	-1,	7,	-1,	23,	34,	32,	-1,	3,	-1,	-1,	11,	-1,	-1,	-1,	48,	-1,	42,	-1,	-1,	-1,	-1,	18,	-1,	45,	49,	-1,	-1,	-1|
16,	-1,	-1,	-1,	3,	33,	8,	26,	-1,	-1,	48,	-1,	-1,	7,	20,	-1,	-1,	-1,	6,	-1,	34,	2,	-1,	-1,	15,	22,	1,	45,	37,	-1,	9,	5,	23,	46,	-1,	-1,	41,	-1,	-1,	-1,	-1,	47,	-1,	31,	-1,	-1,	19,	12,	40|
32,	10,	-1,	11,	-1,	12,	48,	-1,	-1,	-1,	-1,	37,	-1,	13,	-1,	7,	39,	-1,	-1,	-1,	-1,	-1,	24,	-1,	35,	42,	49,	-1,	-1,	8,	44,	-1,	-1,	-1,	21,	5,	-1,	20,	-1,	29,	-1,	-1,	9,	15,	28,	23,	3,	16,	-1|
-1,	13,	-1,	-1,	34,	46,	-1,	-1,	43,	-1,	33,	-1,	19,	-1,	23,	12,	-1,	32,	-1,	-1,	-1,	36,	5,	-1,	-1,	25,	-1,	-1,	28,	45,	27,	29,	-1,	39,	10,	18,	-1,	1,	31,	-1,	15,	17,	-1,	-1,	20,	7,	22,	21,	-1|
40,	36,	-1,	-1,	-1,	-1,	31,	41,	-1,	33,	-1,	-1,	-1,	-1,	-1,	-1,	-1,	17,	20,	45,	9,	-1,	13,	-1,	-1,	6,	19,	27,	16,	39,	29,	26,	-1,	8,	-1,	-1,	1,	12,	-1,	-1,	30,	18,	38,	23,	37,	48,	-1,	-1,	-1|
-1,	-1,	-1,	41,	-1,	24,	-1,	42,	19,	49,	-1,	-1,	-1,	-1,	33,	-1,	46,	11,	-1,	-1,	-1,	-1,	-1,	-1,	28,	-1,	40,	1,	-1,	-1,	7,	-1,	31,	36,	-1,	-1,	-1,	2,	-1,	8,	-1,	5,	-1,	20,	-1,	9,	30,	14,	3|
-1,	-1,	-1,	9,	-1,	34,	44,	-1,	-1,	31,	-1,	23,	-1,	15,	-1,	40,	-1,	26,	14,	38,	37,	-1,	2,	17,	49,	-1,	-1,	3,	-1,	27,	-1,	21,	1,	-1,	48,	16,	-1,	-1,	-1,	-1,	46,	20,	7,	28,	-1,	-1,	-1,	-1,	-1|
13,	-1,	33,	2,	-1,	-1,	16,	-1,	-1,	1,	45,	-1,	17,	-1,	15,	-1,	-1,	22,	29,	19,	30,	-1,	-1,	-1,	18,	-1,	-1,	23,	-1,	-1,	40,	-1,	-1,	-1,	-1,	-1,	-1,	-1,	-1,	3,	-1,	9,	-1,	21,	31,	-1,	11,	36,	-1|
-1,	-1,	7,	-1,	-1,	-1,	-1,	-1,	26,	-1,	-1,	40,	-1,	-1,	-1,	-1,	-1,	-1,	18,	31,	-1,	20,	-1,	-1,	11,	-1,	45,	-1,	-1,	47,	-1,	-1,	41,	-1,	34,	-1,	-1,	36,	-1,	4,	21,	24,	-1,	10,	8,	12,	29,	-1,	46|
-1,	20,	11,	-1,	-1,	-1,	-1,	-1,	-1,	21,	-1,	9,	-1,	-1,	-1,	-1,	-1,	-1,	-1,	28,	-1,	-1,	39,	8,	-1,	15,	14,	-1,	-1,	-1,	-1,	38,	-1,	-1,	-1,	-1,	31,	48,	-1,	19,	-1,	34,	27,	22,	5,	-1,	-1,	-1,	-1|
29,	-1,	-1,	-1,	23,	28,	46,	8,	30,	-1,	2,	-1,	37,	-1,	7,	-1,	-1,	-1,	-1,	-1,	-1,	-1,	43,	9,	-1,	36,	22,	31,	-1,	-1,	33,	-1,	19,	10,	20,	14,	27,	-1,	6,	49,	13,	-1,	-1,	-1,	1,	17,	-1,	-1,	42|
34,	31,	-1,	-1,	28,	-1,	-1,	43,	-1,	-1,	-1,	-1,	-1,	-1,	25,	-1,	24,	-1,	2,	37,	40,	-1,	49,	-1,	47,	20,	-1,	33,	-1,	-1,	-1,	-1,	-1,	-1,	19,	29,	8,	35,	-1,	-1,	27,	22,	11,	9,	16,	15,	32,	-1,	-1|
46,	-1,	-1,	-1,	-1,	-1,	-1,	-1,	29,	-1,	-1,	15,	42,	36,	-1,	27,	19,	12,	-1,	-1,	14,	5,	-1,	-1,	-1,	28,	48,	-1,	2,	35,	-1,	-1,	-1,	-1,	25,	-1,	-1,	18,	-1,	-1,	37,	-1,	49,	-1,	-1,	-1,	-1,	45,	21|
12,	5,	-1,	49,	40,	38,	-1,	20,	27,	-1,	13,	6,	21,	26,	41,	-1,	22,	-1,	-1,	36,	-1,	25,	15,	35,	-1,	-1,	-1,	-1,	-1,	3,	34,	10,	37,	31,	-1,	-1,	-1,	-1,	-1,	28,	39,	-1,	-1,	14,	-1,	18,	-1,	-1,	17|
-1,	-1,	22,	13,	-1,	6,	2,	32,	5,	-1,	49,	-1,	-1,	46,	9,	-1,	28,	-1,	31,	-1,	17,	-1,	-1,	21,	34,	-1,	-1,	-1,	-1,	18,	48,	-1,	-1,	-1,	38,	-1,	-1,	-1,	-1,	45,	12,	42,	26,	-1,	-1,	30,	23,	44,	10|
36,	-1,	21,	33,	35,	-1,	-1,	19,	48,	-1,	-1,	-1,	-1,	12,	29,	-1,	44,	13,	23,	-1,	-1,	37,	32,	1,	-1,	-1,	2,	30,	-1,	6,	43,	-1,	-1,	27,	-1,	20,	-1,	26,	-1,	9,	-1,	10,	-1,	3,	-1,	-1,	38,	4,	7|
-1,	26,	-1,	-1,	-1,	-1,	-1,	16,	28,	18,	-1,	30,	-1,	-1,	38,	45,	34,	49,	15,	42,	10,	23,	-1,	24,	31,	-1,	43,	-1,	7,	32,	14,	13,	-1,	33,	-1,	21,	6,	25,	36,	48,	-1,	2,	35,	27,	-1,	19,	-1,	-1,	12|
-1,	19,	20,	-1,	-1,	16,	3,	37,	38,	-1,	9,	-1,	-1,	17,	5,	43,	21,	48,	35,	-1,	-1,	-1,	41,	-1,	-1,	-1,	12,	7,	39,	46,	-1,	45,	11,	-1,	-1,	31,	13,	30,	-1,	-1,	-1,	-1,	28,	-1,	-1,	42,	-1,	-1,	-1|];
