sudoku-ls/benchmarks_LEQ/INST_49x49/50/inst49x49_50_30.txt
7
1
-1	12	16	-1	33	19	-1	-1	31	41	6	-1	18	45	-1	-1	7	-1	40	3	-1	-1	-1	32	25	44	-1	-1	-1	49	1	35	27	24	2	-1	46	23	-1	15	29	-1	10	17	-1	11	43	13	9
5	-1	-1	21	-1	-1	-1	22	-1	-1	27	-1	-1	-1	43	14	45	9	42	-1	-1	12	6	-1	37	-1	31	-1	41	29	47	-1	-1	19	7	-1	25	17	-1	-1	11	38	4	18	23	-1	28	8	-1
-1	-1	-1	-1	-1	-1	34	-1	11	43	-1	-1	40	4	47	-1	12	-1	-1	18	29	-1	-1	20	-1	-1	-1	13	33	-1	-1	-1	38	-1	5	-1	-1	-1	-1	41	3	1	31	46	-1	-1	-1	22	-1
25	-1	42	-1	-1	11	10	-1	-1	28	15	3	-1	37	1	38	33	-1	-1	35	-1	-1	-1	47	2	8	-1	29	44	-1	21	16	-1	-1	-1	12	-1	13	-1	40	32	-1	-1	26	-1	5	41	-1	-1
4	41	29	48	-1	36	1	5	32	-1	-1	-1	38	-1	28	-1	49	25	-1	15	8	35	-1	10	14	-1	-1	21	-1	17	-1	-1	-1	45	40	27	16	-1	-1	-1	-1	6	3	-1	-1	-1	24	42	37
23	-1	27	-1	38	18	-1	2	35	25	-1	-1	-1	29	44	41	17	-1	19	-1	21	-1	4	-1	-1	-1	42	39	-1	12	-1	34	13	-1	-1	-1	37	45	-1	5	24	-1	30	-1	-1	32	-1	15	-1
6	17	30	-1	13	7	-1	-1	-1	-1	20	33	8	-1	22	16	5	-1	32	-1	31	-1	45	-1	41	43	-1	-1	10	23	-1	25	14	37	-1	-1	-1	34	48	39	18	19	44	-1	-1	29	-1	-1	-1
11	-1	17	29	-1	8	-1	-1	-1	39	10	2	15	3	35	22	-1	-1	49	24	5	-1	20	-1	-1	-1	13	32	4	16	37	-1	-1	-1	27	45	-1	9	-1	1	-1	28	-1	-1	-1	-1	-1	47	-1
-1	9	4	-1	26	21	7	23	-1	30	29	-1	24	-1	-1	36	-1	37	48	17	-1	27	3	-1	10	-1	-1	-1	-1	-1	49	28	-1	-1	45	40	32	-1	-1	-1	20	33	-1	-1	-1	-1	-1	35	-1
-1	-1	40	32	-1	-1	-1	44	36	20	-1	49	46	-1	-1	-1	-1	42	-1	-1	28	4	23	-1	45	21	-1	-1	-1	10	15	24	-1	41	17	19	3	-1	29	31	-1	-1	-1	-1	30	38	2	37	-1
3	-1	49	16	-1	23	-1	-1	41	35	-1	-1	-1	-1	21	13	4	14	11	43	-1	44	-1	42	33	-1	8	-1	19	-1	22	39	-1	20	-1	10	47	15	-1	-1	7	-1	29	-1	-1	-1	17	-1	-1
-1	28	34	44	41	27	13	-1	6	17	37	12	25	-1	-1	-1	15	-1	9	-1	7	-1	47	48	24	39	29	22	-1	31	-1	-1	-1	-1	-1	-1	-1	-1	-1	-1	2	30	21	49	10	-1	-1	-1	-1
-1	46	10	-1	-1	47	-1	-1	45	-1	26	-1	-1	-1	-1	-1	38	-1	44	-1	2	-1	-1	41	1	-1	34	35	-1	-1	5	-1	8	-1	23	36	-1	-1	39	-1	48	27	15	-1	-1	28	7	31	24
31	38	37	-1	-1	-1	35	40	-1	-1	-1	-1	-1	-1	3	-1	30	46	39	10	20	-1	-1	15	36	-1	16	-1	29	2	13	7	44	-1	14	-1	-1	-1	-1	26	6	-1	-1	1	-1	22	-1	9	11
22	-1	8	42	16	13	28	-1	-1	-1	-1	24	-1	47	-1	-1	-1	-1	43	-1	-1	-1	-1	25	29	23	33	-1	-1	5	-1	6	20	21	46	-1	11	-1	35	-1	40	45	-1	44	15	3	48	2	-1
-1	-1	-1	26	49	29	41	13	2	-1	16	46	44	-1	-1	-1	9	-1	-1	14	6	3	-1	5	7	1	-1	15	48	-1	19	-1	24	22	37	8	18	33	-1	-1	-1	39	-1	42	-1	21	27	-1	47
-1	34	-1	39	-1	40	33	45	-1	19	-1	29	41	38	49	5	36	-1	-1	-1	15	-1	-1	11	13	-1	-1	-1	-1	1	-1	4	7	-1	12	28	-1	-1	3	-1	17	-1	43	-1	-1	24	37	18	22
48	-1	-1	-1	-1	-1	12	-1	-1	37	-1	20	31	33	24	-1	-1	4	8	-1	38	-1	-1	39	-1	16	-1	40	13	42	45	-1	36	47	-1	6	-1	-1	7	-1	1	46	17	11	29	26	-1	28	41
-1	-1	9	-1	-1	20	-1	-1	1	32	22	5	-1	10	-1	-1	-1	34	-1	12	41	-1	-1	-1	6	-1	27	2	-1	40	-1	-1	-1	29	15	4	36	-1	-1	-1	47	-1	-1	-1	-1	-1	16	-1	30
-1	47	3	36	1	-1	-1	-1	12	-1	-1	7	-1	-1	-1	21	-1	33	25	46	22	-1	-1	4	-1	-1	-1	18	-1	-1	11	-1	30	-1	41	32	-1	43	19	16	5	29	34	13	-1	-1	8	-1	49
-1	4	25	-1	15	-1	-1	21	-1	-1	8	18	-1	-1	-1	-1	2	7	-1	29	11	-1	-1	28	46	-1	-1	36	34	-1	-1	-1	-1	-1	39	22	-1	-1	49	30	-1	-1	5	-1	-1	-1	9	-1	-1
26	-1	-1	28	46	-1	25	-1	-1	-1	31	-1	-1	-1	30	-1	13	45	-1	-1	-1	21	1	-1	44	35	9	47	-1	-1	10	3	39	-1	-1	15	49	32	-1	6	43	-1	-1	41	-1	8	12	29	-1
43	-1	13	1	-1	-1	21	10	-1	-1	36	42	-1	-1	-1	-1	20	39	-1	25	-1	17	-1	-1	-1	-1	-1	-1	-1	14	-1	-1	2	11	35	37	28	3	18	-1	45	31	-1	-1	26	6	-1	46	5
-1	-1	12	-1	29	9	-1	-1	-1	-1	43	-1	6	2	-1	10	14	21	-1	-1	27	22	36	-1	-1	-1	-1	20	46	28	-1	-1	-1	1	16	-1	-1	-1	-1	-1	4	40	-1	7	49	37	-1	11	18
-1	16	-1	-1	32	-1	40	15	21	4	-1	48	47	41	-1	6	1	-1	-1	44	-1	29	-1	45	8	-1	7	34	31	37	17	-1	-1	13	9	-1	-1	5	33	-1	-1	11	36	-1	2	-1	42	-1	-1
41	11	36	34	8	3	-1	7	-1	16	19	26	-1	5	-1	15	23	-1	37	-1	12	28	-1	-1	4	-1	-1	-1	-1	22	-1	-1	-1	18	-1	-1	-1	-1	20	-1	35	-1	14	-1	9	-1	-1	30	27
-1	37	24	15	-1	4	17	-1	-1	8	-1	-1	-1	49	32	-1	29	-1	5	7	35	-1	-1	14	27	-1	-1	-1	6	26	-1	44	-1	-1	30	-1	-1	-1	12	36	19	41	-1	38	-1	-1	21	-1	28
-1	30	2	-1	6	31	39	-1	-1	-1	35	28	-1	-1	-1	-1	11	-1	22	-1	18	43	-1	49	32	41	-1	26	-1	-1	-1	12	-1	-1	-1	-1	-1	-1	-1	7	-1	-1	33	-1	44	4	-1	-1	16
-1	27	23	19	-1	30	-1	-1	-1	-1	39	16	2	42	48	31	43	29	-1	-1	-1	11	18	-1	40	13	21	10	32	-1	38	-1	17	-1	-1	44	-1	-1	-1	12	25	-1	1	35	36	41	4	-1	-1
-1	-1	26	18	17	1	-1	-1	-1	-1	4	-1	-1	31	11	28	10	15	21	2	-1	-1	9	33	48	-1	-1	41	35	43	-1	19	-1	7	-1	39	-1	40	46	-1	16	32	37	-1	-1	-1	-1	-1	-1
7	-1	-1	-1	36	-1	9	1	-1	22	-1	-1	5	-1	-1	-1	40	-1	-1	8	3	-1	-1	-1	19	37	30	-1	-1	-1	12	42	48	15	31	23	-1	28	-1	-1	34	-1	-1	29	-1	-1	13	-1	-1
2	-1	-1	14	-1	22	-1	-1	-1	-1	-1	-1	-1	-1	27	-1	-1	-1	-1	-1	-1	47	-1	43	-1	-1	32	-1	-1	41	36	-1	26	16	1	-1	-1	42	9	-1	-1	-1	-1	30	-1	-1	39	-1	38
16	21	-1	-1	-1	33	8	-1	-1	11	-1	44	28	-1	-1	17	-1	-1	-1	30	34	-1	-1	-1	15	22	-1	45	37	4	9	-1	23	-1	-1	35	41	-1	13	43	-1	47	-1	31	-1	10	-1	-1	40
-1	10	43	-1	-1	-1	-1	-1	-1	-1	41	37	-1	-1	-1	-1	39	-1	-1	1	25	-1	-1	-1	-1	42	49	17	22	8	-1	40	-1	2	-1	-1	-1	20	-1	29	-1	26	9	-1	-1	-1	3	-1	33
42	13	44	24	34	46	-1	-1	43	-1	-1	-1	-1	-1	23	-1	-1	-1	-1	9	-1	36	5	-1	-1	25	-1	4	-1	45	27	29	-1	-1	-1	-1	30	-1	31	-1	15	-1	47	2	20	-1	-1	-1	48
40	-1	-1	3	-1	-1	31	41	-1	33	32	-1	-1	22	-1	-1	42	17	-1	45	9	24	13	-1	5	6	-1	27	-1	39	29	-1	-1	8	28	-1	1	12	-1	-1	30	18	38	-1	-1	48	-1	49	-1
-1	-1	48	-1	45	24	-1	42	-1	49	-1	34	4	-1	33	-1	46	-1	13	-1	43	10	-1	29	-1	47	-1	-1	15	-1	-1	-1	-1	-1	22	17	35	2	23	-1	-1	-1	-1	-1	25	-1	30	-1	3
30	-1	6	9	-1	-1	44	-1	24	-1	11	-1	-1	-1	-1	-1	8	26	14	38	37	33	-1	17	49	-1	-1	3	12	27	25	-1	-1	-1	48	16	-1	22	-1	-1	46	20	-1	-1	-1	35	-1	-1	-1
-1	-1	33	2	-1	-1	-1	27	-1	1	45	35	17	20	-1	-1	-1	22	29	-1	30	-1	-1	7	-1	38	-1	23	-1	24	40	-1	-1	49	32	-1	10	37	44	3	-1	9	-1	-1	-1	-1	11	-1	-1
-1	-1	7	-1	-1	-1	19	25	26	-1	14	-1	3	-1	16	49	6	-1	18	31	48	-1	-1	44	-1	-1	45	-1	-1	-1	2	-1	41	-1	34	42	39	-1	-1	-1	21	24	13	10	8	12	29	33	-1
-1	-1	11	47	37	26	49	-1	7	-1	18	9	12	-1	-1	-1	25	44	-1	28	23	-1	39	8	-1	15	14	-1	-1	-1	6	-1	4	-1	-1	-1	-1	48	-1	19	33	-1	27	22	5	-1	-1	-1	32
-1	-1	15	-1	23	-1	-1	-1	-1	-1	2	39	-1	48	-1	-1	32	-1	-1	-1	-1	16	43	-1	-1	-1	-1	31	-1	-1	-1	18	19	-1	-1	14	27	-1	-1	49	-1	25	-1	34	-1	-1	-1	41	-1
34	31	-1	-1	-1	48	-1	-1	-1	-1	-1	-1	45	23	-1	3	-1	-1	-1	37	40	13	-1	26	-1	-1	-1	33	36	-1	-1	-1	12	-1	19	-1	-1	-1	-1	-1	-1	-1	11	-1	16	-1	32	6	1
-1	-1	47	-1	11	43	-1	-1	-1	-1	-1	15	-1	36	-1	-1	-1	12	-1	-1	-1	-1	-1	-1	-1	-1	-1	44	-1	35	41	20	9	30	25	38	33	-1	-1	-1	-1	-1	49	-1	-1	-1	31	-1	21
12	5	-1	49	40	-1	24	20	-1	47	13	6	-1	26	-1	8	-1	-1	7	-1	-1	25	15	-1	42	29	4	-1	1	3	34	-1	37	31	-1	-1	23	19	-1	-1	39	-1	-1	-1	43	18	46	48	-1
-1	-1	22	-1	-1	6	2	32	5	-1	-1	-1	35	-1	9	-1	28	-1	-1	-1	-1	14	8	21	34	27	36	-1	-1	-1	48	-1	-1	4	38	-1	40	-1	-1	-1	-1	42	26	-1	33	-1	23	-1	-1
-1	42	-1	33	-1	15	-1	19	48	24	-1	-1	11	-1	-1	46	-1	-1	23	-1	-1	-1	-1	1	-1	-1	-1	30	40	6	43	-1	-1	27	-1	20	14	-1	5	9	-1	-1	41	3	-1	47	-1	4	7
9	26	-1	17	-1	37	-1	-1	28	-1	-1	-1	-1	8	-1	-1	34	-1	-1	42	10	-1	11	-1	-1	3	43	-1	-1	32	-1	13	-1	33	47	21	-1	25	-1	-1	41	2	-1	27	39	-1	-1	5	-1
-1	-1	20	-1	-1	-1	-1	37	-1	-1	9	-1	33	-1	-1	-1	-1	-1	-1	-1	32	-1	-1	-1	22	10	-1	-1	39	-1	26	-1	-1	23	-1	31	13	-1	-1	34	44	15	28	24	-1	42	-1	-1	-1
49 
9 21 46 18
11 2 2 49
30 9 46 36
12 8 44 19
43 34 40 10
35 33 20 8
48 29 6 45
28 31 32 41
43 44 37 46
35 35 17 19
46 20 9 28
47 14 39 5
32 20 34 14
4 8 18 2
3 30 36 49
34 48 13 13
22 45 46 21
13 15 10 2
46 28 32 16
25 1 4 37
37 20 47 3
5 39 42 27
22 13 34 46
33 35 24 27
11 28 8 2
17 34 7 10
21 14 22 10
29 1 20 11
49 49 48 33
16 16 8 24
19 24 38 10
35 18 12 33
26 32 13 1
34 33 44 10
25 4 35 8
30 13 40 38
28 9 19 40
31 3 48 15
46 1 47 20
41 39 44 24
46 12 37 4
19 16 14 43
40 5 5 32
21 16 45 35
20 46 46 40
39 32 27 38
46 38 49 20
23 28 32 36
35 21 23 6
